\Problem name: compact

Minimize
OBJROW: C
Subject To
ord(0,1):  x(0,0) - x(0,2) >= 6
ord(0,2):  - x(0,0) + x(0,1) >= 2
ord(1,1):  x(1,1) - x(1,2) >= 7
ord(1,2):  x(1,0) - x(1,1) >= 9
ord(2,1):  x(2,0) - x(2,1) >= 5
ord(2,2):  - x(2,0) + x(2,2) >= 9
ord(3,1):  x(3,0) - x(3,1) >= 9
ord(3,2):  - x(3,0) + x(3,2) >= 6
triangle2(0,1,0):  y(0,1,0) + y(1,0,0) = 1
triangle2(0,1,1):  y(0,1,1) + y(1,0,1) = 1
triangle2(0,1,2):  y(0,1,2) + y(1,0,2) = 1
triangle2(0,2,0):  y(0,2,0) + y(2,0,0) = 1
triangle2(0,2,1):  y(0,2,1) + y(2,0,1) = 1
triangle2(0,2,2):  y(0,2,2) + y(2,0,2) = 1
triangle2(0,3,0):  y(0,3,0) + y(3,0,0) = 1
triangle2(0,3,1):  y(0,3,1) + y(3,0,1) = 1
triangle2(0,3,2):  y(0,3,2) + y(3,0,2) = 1
triangle2(1,2,0):  y(1,2,0) + y(2,1,0) = 1
triangle2(1,2,1):  y(1,2,1) + y(2,1,1) = 1
triangle2(1,2,2):  y(1,2,2) + y(2,1,2) = 1
triangle2(1,3,0):  y(1,3,0) + y(3,1,0) = 1
triangle2(1,3,1):  y(1,3,1) + y(3,1,1) = 1
triangle2(1,3,2):  y(1,3,2) + y(3,1,2) = 1
triangle2(2,3,0):  y(2,3,0) + y(3,2,0) = 1
triangle2(2,3,1):  y(2,3,1) + y(3,2,1) = 1
triangle2(2,3,2):  y(2,3,2) + y(3,2,2) = 1
MCLinV(0,1,0):  x(0,0) - v(0,1,0) - x(1,0) = 4
MCLinV(1,0,0):  - x(0,0) - v(1,0,0) + x(1,0) = 2
MCLin1(0,1,0):  u(0,1,0) >= -0
MCLin2(0,1,0):  -72 y(1,0,0) - u(0,1,0) <= -0
MCLin3(0,1,0):  47 y(1,0,0) + v(0,1,0) - u(0,1,0) <= 47
MCLin4(0,1,0):  47 y(1,0,0) - u(0,1,0) >= -0
MCLin5(0,1,0):  -72 y(1,0,0) + v(0,1,0) - u(0,1,0) >= -72
MCLin6(1,0,0):  u(1,0,0) >= -0
MCLin7(1,0,0):  -53 y(0,1,0) - u(1,0,0) <= -0
MCLin8(1,0,0):  66 y(0,1,0) + v(1,0,0) - u(1,0,0) <= 66
MCLin9(1,0,0):  66 y(0,1,0) - u(1,0,0) >= -0
MCLin10(1,0,0):  -53 y(0,1,0) + v(1,0,0) - u(1,0,0) >= -53
MCLinV(0,1,1):  x(0,1) - v(0,1,1) - x(1,1) = 9
MCLinV(1,0,1):  - x(0,1) - v(1,0,1) + x(1,1) = 9
MCLin1(0,1,1):  u(0,1,1) >= -0
MCLin2(0,1,1):  -66 y(1,0,1) - u(0,1,1) <= -0
MCLin3(0,1,1):  53 y(1,0,1) + v(0,1,1) - u(0,1,1) <= 53
MCLin4(0,1,1):  53 y(1,0,1) - u(0,1,1) >= -0
MCLin5(0,1,1):  -66 y(1,0,1) + v(0,1,1) - u(0,1,1) >= -66
MCLin6(1,0,1):  u(1,0,1) >= -0
MCLin7(1,0,1):  -71 y(0,1,1) - u(1,0,1) <= -0
MCLin8(1,0,1):  48 y(0,1,1) + v(1,0,1) - u(1,0,1) <= 48
MCLin9(1,0,1):  48 y(0,1,1) - u(1,0,1) >= -0
MCLin10(1,0,1):  -71 y(0,1,1) + v(1,0,1) - u(1,0,1) >= -71
MCLinV(0,1,2):  x(0,2) - v(0,1,2) - x(1,2) = 7
MCLinV(1,0,2):  - x(0,2) - v(1,0,2) + x(1,2) = 6
MCLin1(0,1,2):  u(0,1,2) >= -0
MCLin2(0,1,2):  -65 y(1,0,2) - u(0,1,2) <= -0
MCLin3(0,1,2):  54 y(1,0,2) + v(0,1,2) - u(0,1,2) <= 54
MCLin4(0,1,2):  54 y(1,0,2) - u(0,1,2) >= -0
MCLin5(0,1,2):  -65 y(1,0,2) + v(0,1,2) - u(0,1,2) >= -65
MCLin6(1,0,2):  u(1,0,2) >= -0
MCLin7(1,0,2):  -67 y(0,1,2) - u(1,0,2) <= -0
MCLin8(1,0,2):  52 y(0,1,2) + v(1,0,2) - u(1,0,2) <= 52
MCLin9(1,0,2):  52 y(0,1,2) - u(1,0,2) >= -0
MCLin10(1,0,2):  -67 y(0,1,2) + v(1,0,2) - u(1,0,2) >= -67
MCLinV(0,2,0):  x(0,0) - v(0,2,0) - x(2,0) = 9
MCLinV(2,0,0):  - x(0,0) - v(2,0,0) + x(2,0) = 2
MCLin1(0,2,0):  u(0,2,0) >= -0
MCLin2(0,2,0):  -62 y(2,0,0) - u(0,2,0) <= -0
MCLin3(0,2,0):  53 y(2,0,0) + v(0,2,0) - u(0,2,0) <= 53
MCLin4(0,2,0):  53 y(2,0,0) - u(0,2,0) >= -0
MCLin5(0,2,0):  -62 y(2,0,0) + v(0,2,0) - u(0,2,0) >= -62
MCLin6(2,0,0):  u(2,0,0) >= -0
MCLin7(2,0,0):  -64 y(0,2,0) - u(2,0,0) <= -0
MCLin8(2,0,0):  51 y(0,2,0) + v(2,0,0) - u(2,0,0) <= 51
MCLin9(2,0,0):  51 y(0,2,0) - u(2,0,0) >= -0
MCLin10(2,0,0):  -64 y(0,2,0) + v(2,0,0) - u(2,0,0) >= -64
MCLinV(0,2,1):  x(0,1) - v(0,2,1) - x(2,1) = 5
MCLinV(2,0,1):  - x(0,1) - v(2,0,1) + x(2,1) = 9
MCLin1(0,2,1):  u(0,2,1) >= -0
MCLin2(0,2,1):  -51 y(2,0,1) - u(0,2,1) <= -0
MCLin3(0,2,1):  64 y(2,0,1) + v(0,2,1) - u(0,2,1) <= 64
MCLin4(0,2,1):  64 y(2,0,1) - u(0,2,1) >= -0
MCLin5(0,2,1):  -51 y(2,0,1) + v(0,2,1) - u(0,2,1) >= -51
MCLin6(2,0,1):  u(2,0,1) >= -0
MCLin7(2,0,1):  -78 y(0,2,1) - u(2,0,1) <= -0
MCLin8(2,0,1):  37 y(0,2,1) + v(2,0,1) - u(2,0,1) <= 37
MCLin9(2,0,1):  37 y(0,2,1) - u(2,0,1) >= -0
MCLin10(2,0,1):  -78 y(0,2,1) + v(2,0,1) - u(2,0,1) >= -78
MCLinV(0,2,2):  x(0,2) - v(0,2,2) - x(2,2) = 10
MCLinV(2,0,2):  - x(0,2) - v(2,0,2) + x(2,2) = 6
MCLin1(0,2,2):  u(0,2,2) >= -0
MCLin2(0,2,2):  -78 y(2,0,2) - u(0,2,2) <= -0
MCLin3(0,2,2):  37 y(2,0,2) + v(0,2,2) - u(0,2,2) <= 37
MCLin4(0,2,2):  37 y(2,0,2) - u(0,2,2) >= -0
MCLin5(0,2,2):  -78 y(2,0,2) + v(0,2,2) - u(0,2,2) >= -78
MCLin6(2,0,2):  u(2,0,2) >= -0
MCLin7(2,0,2):  -53 y(0,2,2) - u(2,0,2) <= -0
MCLin8(2,0,2):  62 y(0,2,2) + v(2,0,2) - u(2,0,2) <= 62
MCLin9(2,0,2):  62 y(0,2,2) - u(2,0,2) >= -0
MCLin10(2,0,2):  -53 y(0,2,2) + v(2,0,2) - u(2,0,2) >= -53
MCLinV(0,3,0):  x(0,0) - v(0,3,0) - x(3,0) = 6
MCLinV(3,0,0):  - x(0,0) - v(3,0,0) + x(3,0) = 2
MCLin1(0,3,0):  u(0,3,0) >= -0
MCLin2(0,3,0):  -70 y(3,0,0) - u(0,3,0) <= -0
MCLin3(0,3,0):  52 y(3,0,0) + v(0,3,0) - u(0,3,0) <= 52
MCLin4(0,3,0):  52 y(3,0,0) - u(0,3,0) >= -0
MCLin5(0,3,0):  -70 y(3,0,0) + v(0,3,0) - u(0,3,0) >= -70
MCLin6(3,0,0):  u(3,0,0) >= -0
MCLin7(3,0,0):  -60 y(0,3,0) - u(3,0,0) <= -0
MCLin8(3,0,0):  62 y(0,3,0) + v(3,0,0) - u(3,0,0) <= 62
MCLin9(3,0,0):  62 y(0,3,0) - u(3,0,0) >= -0
MCLin10(3,0,0):  -60 y(0,3,0) + v(3,0,0) - u(3,0,0) >= -60
MCLinV(0,3,1):  x(0,1) - v(0,3,1) - x(3,1) = 9
MCLinV(3,0,1):  - x(0,1) - v(3,0,1) + x(3,1) = 9
MCLin1(0,3,1):  u(0,3,1) >= -0
MCLin2(0,3,1):  -62 y(3,0,1) - u(0,3,1) <= -0
MCLin3(0,3,1):  60 y(3,0,1) + v(0,3,1) - u(0,3,1) <= 60
MCLin4(0,3,1):  60 y(3,0,1) - u(0,3,1) >= -0
MCLin5(0,3,1):  -62 y(3,0,1) + v(0,3,1) - u(0,3,1) >= -62
MCLin6(3,0,1):  u(3,0,1) >= -0
MCLin7(3,0,1):  -78 y(0,3,1) - u(3,0,1) <= -0
MCLin8(3,0,1):  44 y(0,3,1) + v(3,0,1) - u(3,0,1) <= 44
MCLin9(3,0,1):  44 y(0,3,1) - u(3,0,1) >= -0
MCLin10(3,0,1):  -78 y(0,3,1) + v(3,0,1) - u(3,0,1) >= -78
MCLinV(0,3,2):  x(0,2) - v(0,3,2) - x(3,2) = 2
MCLinV(3,0,2):  - x(0,2) - v(3,0,2) + x(3,2) = 6
MCLin1(0,3,2):  u(0,3,2) >= -0
MCLin2(0,3,2):  -78 y(3,0,2) - u(0,3,2) <= -0
MCLin3(0,3,2):  44 y(3,0,2) + v(0,3,2) - u(0,3,2) <= 44
MCLin4(0,3,2):  44 y(3,0,2) - u(0,3,2) >= -0
MCLin5(0,3,2):  -78 y(3,0,2) + v(0,3,2) - u(0,3,2) >= -78
MCLin6(3,0,2):  u(3,0,2) >= -0
MCLin7(3,0,2):  -52 y(0,3,2) - u(3,0,2) <= -0
MCLin8(3,0,2):  70 y(0,3,2) + v(3,0,2) - u(3,0,2) <= 70
MCLin9(3,0,2):  70 y(0,3,2) - u(3,0,2) >= -0
MCLin10(3,0,2):  -52 y(0,3,2) + v(3,0,2) - u(3,0,2) >= -52
MCLinV(1,2,0):  x(1,0) - v(1,2,0) - x(2,0) = 9
MCLinV(2,1,0):  - x(1,0) - v(2,1,0) + x(2,0) = 4
MCLin1(1,2,0):  u(1,2,0) >= -0
MCLin2(1,2,0):  -52 y(2,1,0) - u(1,2,0) <= -0
MCLin3(1,2,0):  60 y(2,1,0) + v(1,2,0) - u(1,2,0) <= 60
MCLin4(1,2,0):  60 y(2,1,0) - u(1,2,0) >= -0
MCLin5(1,2,0):  -52 y(2,1,0) + v(1,2,0) - u(1,2,0) >= -52
MCLin6(2,1,0):  u(2,1,0) >= -0
MCLin7(2,1,0):  -73 y(1,2,0) - u(2,1,0) <= -0
MCLin8(2,1,0):  39 y(1,2,0) + v(2,1,0) - u(2,1,0) <= 39
MCLin9(2,1,0):  39 y(1,2,0) - u(2,1,0) >= -0
MCLin10(2,1,0):  -73 y(1,2,0) + v(2,1,0) - u(2,1,0) >= -73
MCLinV(1,2,1):  x(1,1) - v(1,2,1) - x(2,1) = 5
MCLinV(2,1,1):  - x(1,1) - v(2,1,1) + x(2,1) = 9
MCLin1(1,2,1):  u(1,2,1) >= -0
MCLin2(1,2,1):  -52 y(2,1,1) - u(1,2,1) <= -0
MCLin3(1,2,1):  60 y(2,1,1) + v(1,2,1) - u(1,2,1) <= 60
MCLin4(1,2,1):  60 y(2,1,1) - u(1,2,1) >= -0
MCLin5(1,2,1):  -52 y(2,1,1) + v(1,2,1) - u(1,2,1) >= -52
MCLin6(2,1,1):  u(2,1,1) >= -0
MCLin7(2,1,1):  -74 y(1,2,1) - u(2,1,1) <= -0
MCLin8(2,1,1):  38 y(1,2,1) + v(2,1,1) - u(2,1,1) <= 38
MCLin9(2,1,1):  38 y(1,2,1) - u(2,1,1) >= -0
MCLin10(2,1,1):  -74 y(1,2,1) + v(2,1,1) - u(2,1,1) >= -74
MCLinV(1,2,2):  x(1,2) - v(1,2,2) - x(2,2) = 10
MCLinV(2,1,2):  - x(1,2) - v(2,1,2) + x(2,2) = 7
MCLin1(1,2,2):  u(1,2,2) >= -0
MCLin2(1,2,2):  -78 y(2,1,2) - u(1,2,2) <= -0
MCLin3(1,2,2):  34 y(2,1,2) + v(1,2,2) - u(1,2,2) <= 34
MCLin4(1,2,2):  34 y(2,1,2) - u(1,2,2) >= -0
MCLin5(1,2,2):  -78 y(2,1,2) + v(1,2,2) - u(1,2,2) >= -78
MCLin6(2,1,2):  u(2,1,2) >= -0
MCLin7(2,1,2):  -51 y(1,2,2) - u(2,1,2) <= -0
MCLin8(2,1,2):  61 y(1,2,2) + v(2,1,2) - u(2,1,2) <= 61
MCLin9(2,1,2):  61 y(1,2,2) - u(2,1,2) >= -0
MCLin10(2,1,2):  -51 y(1,2,2) + v(2,1,2) - u(2,1,2) >= -51
MCLinV(1,3,0):  x(1,0) - v(1,3,0) - x(3,0) = 6
MCLinV(3,1,0):  - x(1,0) - v(3,1,0) + x(3,0) = 4
MCLin1(1,3,0):  u(1,3,0) >= -0
MCLin2(1,3,0):  -60 y(3,1,0) - u(1,3,0) <= -0
MCLin3(1,3,0):  59 y(3,1,0) + v(1,3,0) - u(1,3,0) <= 59
MCLin4(1,3,0):  59 y(3,1,0) - u(1,3,0) >= -0
MCLin5(1,3,0):  -60 y(3,1,0) + v(1,3,0) - u(1,3,0) >= -60
MCLin6(3,1,0):  u(3,1,0) >= -0
MCLin7(3,1,0):  -69 y(1,3,0) - u(3,1,0) <= -0
MCLin8(3,1,0):  50 y(1,3,0) + v(3,1,0) - u(3,1,0) <= 50
MCLin9(3,1,0):  50 y(1,3,0) - u(3,1,0) >= -0
MCLin10(3,1,0):  -69 y(1,3,0) + v(3,1,0) - u(3,1,0) >= -69
MCLinV(1,3,1):  x(1,1) - v(1,3,1) - x(3,1) = 9
MCLinV(3,1,1):  - x(1,1) - v(3,1,1) + x(3,1) = 9
MCLin1(1,3,1):  u(1,3,1) >= -0
MCLin2(1,3,1):  -63 y(3,1,1) - u(1,3,1) <= -0
MCLin3(1,3,1):  56 y(3,1,1) + v(1,3,1) - u(1,3,1) <= 56
MCLin4(1,3,1):  56 y(3,1,1) - u(1,3,1) >= -0
MCLin5(1,3,1):  -63 y(3,1,1) + v(1,3,1) - u(1,3,1) >= -63
MCLin6(3,1,1):  u(3,1,1) >= -0
MCLin7(3,1,1):  -74 y(1,3,1) - u(3,1,1) <= -0
MCLin8(3,1,1):  45 y(1,3,1) + v(3,1,1) - u(3,1,1) <= 45
MCLin9(3,1,1):  45 y(1,3,1) - u(3,1,1) >= -0
MCLin10(3,1,1):  -74 y(1,3,1) + v(3,1,1) - u(3,1,1) >= -74
MCLinV(1,3,2):  x(1,2) - v(1,3,2) - x(3,2) = 2
MCLinV(3,1,2):  - x(1,2) - v(3,1,2) + x(3,2) = 7
MCLin1(1,3,2):  u(1,3,2) >= -0
MCLin2(1,3,2):  -78 y(3,1,2) - u(1,3,2) <= -0
MCLin3(1,3,2):  41 y(3,1,2) + v(1,3,2) - u(1,3,2) <= 41
MCLin4(1,3,2):  41 y(3,1,2) - u(1,3,2) >= -0
MCLin5(1,3,2):  -78 y(3,1,2) + v(1,3,2) - u(1,3,2) >= -78
MCLin6(3,1,2):  u(3,1,2) >= -0
MCLin7(3,1,2):  -50 y(1,3,2) - u(3,1,2) <= -0
MCLin8(3,1,2):  69 y(1,3,2) + v(3,1,2) - u(3,1,2) <= 69
MCLin9(3,1,2):  69 y(1,3,2) - u(3,1,2) >= -0
MCLin10(3,1,2):  -50 y(1,3,2) + v(3,1,2) - u(3,1,2) >= -50
MCLinV(2,3,0):  x(2,0) - v(2,3,0) - x(3,0) = 6
MCLinV(3,2,0):  - x(2,0) - v(3,2,0) + x(3,0) = 9
MCLin1(2,3,0):  u(2,3,0) >= -0
MCLin2(2,3,0):  -71 y(3,2,0) - u(2,3,0) <= -0
MCLin3(2,3,0):  44 y(3,2,0) + v(2,3,0) - u(2,3,0) <= 44
MCLin4(2,3,0):  44 y(3,2,0) - u(2,3,0) >= -0
MCLin5(2,3,0):  -71 y(3,2,0) + v(2,3,0) - u(2,3,0) >= -71
MCLin6(3,2,0):  u(3,2,0) >= -0
MCLin7(3,2,0):  -59 y(2,3,0) - u(3,2,0) <= -0
MCLin8(3,2,0):  56 y(2,3,0) + v(3,2,0) - u(3,2,0) <= 56
MCLin9(3,2,0):  56 y(2,3,0) - u(3,2,0) >= -0
MCLin10(3,2,0):  -59 y(2,3,0) + v(3,2,0) - u(3,2,0) >= -59
MCLinV(2,3,1):  x(2,1) - v(2,3,1) - x(3,1) = 9
MCLinV(3,2,1):  - x(2,1) - v(3,2,1) + x(3,1) = 5
MCLin1(2,3,1):  u(2,3,1) >= -0
MCLin2(2,3,1):  -70 y(3,2,1) - u(2,3,1) <= -0
MCLin3(2,3,1):  45 y(3,2,1) + v(2,3,1) - u(2,3,1) <= 45
MCLin4(2,3,1):  45 y(3,2,1) - u(2,3,1) >= -0
MCLin5(2,3,1):  -70 y(3,2,1) + v(2,3,1) - u(2,3,1) >= -70
MCLin6(3,2,1):  u(3,2,1) >= -0
MCLin7(3,2,1):  -59 y(2,3,1) - u(3,2,1) <= -0
MCLin8(3,2,1):  56 y(2,3,1) + v(3,2,1) - u(3,2,1) <= 56
MCLin9(3,2,1):  56 y(2,3,1) - u(3,2,1) >= -0
MCLin10(3,2,1):  -59 y(2,3,1) + v(3,2,1) - u(3,2,1) >= -59
MCLinV(2,3,2):  x(2,2) - v(2,3,2) - x(3,2) = 2
MCLinV(3,2,2):  - x(2,2) - v(3,2,2) + x(3,2) = 10
MCLin1(2,3,2):  u(2,3,2) >= -0
MCLin2(2,3,2):  -64 y(3,2,2) - u(2,3,2) <= -0
MCLin3(2,3,2):  51 y(3,2,2) + v(2,3,2) - u(2,3,2) <= 51
MCLin4(2,3,2):  51 y(3,2,2) - u(2,3,2) >= -0
MCLin5(2,3,2):  -64 y(3,2,2) + v(2,3,2) - u(2,3,2) >= -64
MCLin6(3,2,2):  u(3,2,2) >= -0
MCLin7(3,2,2):  -63 y(2,3,2) - u(3,2,2) <= -0
MCLin8(3,2,2):  52 y(2,3,2) + v(3,2,2) - u(3,2,2) <= 52
MCLin9(3,2,2):  52 y(2,3,2) - u(3,2,2) >= -0
MCLin10(3,2,2):  -63 y(2,3,2) + v(3,2,2) - u(3,2,2) >= -63
makespan(0):  C - x(0,1) >= 9
makespan(1):  C - x(1,0) >= 4
makespan(2):  C - x(2,2) >= 10
makespan(3):  C - x(3,2) >= 2
cut_clique_0(0123,0):  0.03030 x(2,0) + 0.06061 x(3,0) >= 1
cut_clique_0(023,0):  0.03030 x(2,0) + 0.06061 x(3,0) >= 1
cut_clique_0(012,0):  0.03659 x(0,0) + 0.09756 x(2,0) >= 1
cut_clique_0(123,0):  0.03030 x(2,0) + 0.06061 x(3,0) >= 1
cut_clique_0(0123,1):  0.11111 x(2,1) + 0.20000 x(3,1) >= 1
cut_clique_0(123,1):  0.11111 x(2,1) + 0.20000 x(3,1) >= 1
cut_clique_0(013,1):  0.03704 x(0,1) + 0.03704 x(1,1) + 0.00593 x(3,1) >= 1
cut_clique_0(023,1):  0.11111 x(2,1) + 0.20000 x(3,1) >= 1
cut_clique_0(0123,2):  0.04545 x(2,2) + 0.01515 x(3,2) >= 1
cut_clique_0(023,2):  0.04545 x(2,2) + 0.01515 x(3,2) >= 1
cut_clique_0(123,2):  0.04545 x(2,2) + 0.01515 x(3,2) >= 1
cut_clique_1(0123,0):  0.00906 x(0,0) + 0.01460 x(1,0) + 0.02336 x(2,0) + 0.02719 x(3,0) >= 1
cut_clique_1(023,0):  0.01307 x(0,0) + 0.03791 x(2,0) + 0.03922 x(3,0) >= 1
cut_clique_1(0123,1):  0.02469 x(0,1) + 0.02469 x(1,1) + 0.01235 x(2,1) + 0.01728 x(3,1) >= 1
cut_clique_1(123,1):  0.05820 x(1,1) + 0.02646 x(2,1) + 0.03704 x(3,1) >= 1
Bounds
 0 <= C <= 78
 6 <= x(0,0) <= 67
 0 <= y(0,1,0) <= 1
 0 <= y(1,0,0) <= 1
 -72 <= v(0,1,0) <= 47
 -53 <= v(1,0,0) <= 66
 -780 <= u(0,1,0)
 -780 <= u(1,0,0)
 0 <= y(0,2,0) <= 1
 0 <= y(2,0,0) <= 1
 -62 <= v(0,2,0) <= 53
 -64 <= v(2,0,0) <= 51
 -780 <= u(0,2,0)
 -780 <= u(2,0,0)
 0 <= y(0,3,0) <= 1
 0 <= y(3,0,0) <= 1
 -70 <= v(0,3,0) <= 52
 -60 <= v(3,0,0) <= 62
 -780 <= u(0,3,0)
 -780 <= u(3,0,0)
 16 <= x(1,0) <= 74
 0 <= y(1,2,0) <= 1
 0 <= y(2,1,0) <= 1
 -52 <= v(1,2,0) <= 60
 -73 <= v(2,1,0) <= 39
 -780 <= u(1,2,0)
 -780 <= u(2,1,0)
 0 <= y(1,3,0) <= 1
 0 <= y(3,1,0) <= 1
 -60 <= v(1,3,0) <= 59
 -69 <= v(3,1,0) <= 50
 -780 <= u(1,3,0)
 -780 <= u(3,1,0)
 5 <= x(2,0) <= 59
 0 <= y(2,3,0) <= 1
 0 <= y(3,2,0) <= 1
 -71 <= v(2,3,0) <= 44
 -59 <= v(3,2,0) <= 56
 -780 <= u(2,3,0)
 -780 <= u(3,2,0)
 9 <= x(3,0) <= 70
 8 <= x(0,1) <= 69
 0 <= y(0,1,1) <= 1
 0 <= y(1,0,1) <= 1
 -66 <= v(0,1,1) <= 53
 -71 <= v(1,0,1) <= 48
 -780 <= u(0,1,1)
 -780 <= u(1,0,1)
 0 <= y(0,2,1) <= 1
 0 <= y(2,0,1) <= 1
 -51 <= v(0,2,1) <= 64
 -78 <= v(2,0,1) <= 37
 -780 <= u(0,2,1)
 -780 <= u(2,0,1)
 0 <= y(0,3,1) <= 1
 0 <= y(3,0,1) <= 1
 -62 <= v(0,3,1) <= 60
 -78 <= v(3,0,1) <= 44
 -780 <= u(0,3,1)
 -780 <= u(3,0,1)
 7 <= x(1,1) <= 65
 0 <= y(1,2,1) <= 1
 0 <= y(2,1,1) <= 1
 -52 <= v(1,2,1) <= 60
 -74 <= v(2,1,1) <= 38
 -780 <= u(1,2,1)
 -780 <= u(2,1,1)
 0 <= y(1,3,1) <= 1
 0 <= y(3,1,1) <= 1
 -63 <= v(1,3,1) <= 56
 -74 <= v(3,1,1) <= 45
 -780 <= u(1,3,1)
 -780 <= u(3,1,1)
 0 <= x(2,1) <= 54
 0 <= y(2,3,1) <= 1
 0 <= y(3,2,1) <= 1
 -70 <= v(2,3,1) <= 45
 -59 <= v(3,2,1) <= 56
 -780 <= u(2,3,1)
 -780 <= u(3,2,1)
 0 <= x(3,1) <= 61
 0 <= x(0,2) <= 61
 0 <= y(0,1,2) <= 1
 0 <= y(1,0,2) <= 1
 -65 <= v(0,1,2) <= 54
 -67 <= v(1,0,2) <= 52
 -780 <= u(0,1,2)
 -780 <= u(1,0,2)
 0 <= y(0,2,2) <= 1
 0 <= y(2,0,2) <= 1
 -78 <= v(0,2,2) <= 37
 -53 <= v(2,0,2) <= 62
 -780 <= u(0,2,2)
 -780 <= u(2,0,2)
 0 <= y(0,3,2) <= 1
 0 <= y(3,0,2) <= 1
 -78 <= v(0,3,2) <= 44
 -52 <= v(3,0,2) <= 70
 -780 <= u(0,3,2)
 -780 <= u(3,0,2)
 0 <= x(1,2) <= 58
 0 <= y(1,2,2) <= 1
 0 <= y(2,1,2) <= 1
 -78 <= v(1,2,2) <= 34
 -51 <= v(2,1,2) <= 61
 -780 <= u(1,2,2)
 -780 <= u(2,1,2)
 0 <= y(1,3,2) <= 1
 0 <= y(3,1,2) <= 1
 -78 <= v(1,3,2) <= 41
 -50 <= v(3,1,2) <= 69
 -780 <= u(1,3,2)
 -780 <= u(3,1,2)
 14 <= x(2,2) <= 68
 0 <= y(2,3,2) <= 1
 0 <= y(3,2,2) <= 1
 -64 <= v(2,3,2) <= 51
 -63 <= v(3,2,2) <= 52
 -780 <= u(2,3,2)
 -780 <= u(3,2,2)
 15 <= x(3,2) <= 76
Integers
C x(0,0) y(0,1,0) y(1,0,0) v(0,1,0) v(1,0,0) u(0,1,0) u(1,0,0) y(0,2,0) y(2,0,0) 
v(0,2,0) v(2,0,0) u(0,2,0) u(2,0,0) y(0,3,0) y(3,0,0) v(0,3,0) v(3,0,0) u(0,3,0) u(3,0,0) 
x(1,0) y(1,2,0) y(2,1,0) v(1,2,0) v(2,1,0) u(1,2,0) u(2,1,0) y(1,3,0) y(3,1,0) v(1,3,0) 
v(3,1,0) u(1,3,0) u(3,1,0) x(2,0) y(2,3,0) y(3,2,0) v(2,3,0) v(3,2,0) u(2,3,0) u(3,2,0) 
x(3,0) x(0,1) y(0,1,1) y(1,0,1) v(0,1,1) v(1,0,1) u(0,1,1) u(1,0,1) y(0,2,1) y(2,0,1) 
v(0,2,1) v(2,0,1) u(0,2,1) u(2,0,1) y(0,3,1) y(3,0,1) v(0,3,1) v(3,0,1) u(0,3,1) u(3,0,1) 
x(1,1) y(1,2,1) y(2,1,1) v(1,2,1) v(2,1,1) u(1,2,1) u(2,1,1) y(1,3,1) y(3,1,1) v(1,3,1) 
v(3,1,1) u(1,3,1) u(3,1,1) x(2,1) y(2,3,1) y(3,2,1) v(2,3,1) v(3,2,1) u(2,3,1) u(3,2,1) 
x(3,1) x(0,2) y(0,1,2) y(1,0,2) v(0,1,2) v(1,0,2) u(0,1,2) u(1,0,2) y(0,2,2) y(2,0,2) 
v(0,2,2) v(2,0,2) u(0,2,2) u(2,0,2) y(0,3,2) y(3,0,2) v(0,3,2) v(3,0,2) u(0,3,2) u(3,0,2) 
x(1,2) y(1,2,2) y(2,1,2) v(1,2,2) v(2,1,2) u(1,2,2) u(2,1,2) y(1,3,2) y(3,1,2) v(1,3,2) 
v(3,1,2) u(1,3,2) u(3,1,2) x(2,2) y(2,3,2) y(3,2,2) v(2,3,2) v(3,2,2) u(2,3,2) u(3,2,2) 
x(3,2) 
End
